(set-logic ALL)
(set-option :produce-models true)
(declare-sort BoundSet 0)
(declare-sort UnboundSet 0)
(set-option :finite-model-find true)
(declare-fun IsPointingTowards (BoundSet BoundSet) Bool)
(declare-fun IsPointing (BoundSet BoundSet) Bool)
(declare-fun IsUpward (BoundSet) Bool)
(assert (not (=> (exists ((b BoundSet)) (exists ((a BoundSet)) (IsPointingTowards a b))) (exists ((c BoundSet)) (exists ((d BoundSet)) (exists ((e BoundSet)) (and (IsPointing c d) (IsUpward e))))))))
(check-sat)
(get-model)